c Random generated cnf formula, satisfiable: true
p cnf 10 50
-7 5 8 0
5 6 7 0
-7 -10 -4 0
10 -6 -2 0
7 -1 -3 0
-10 -6 -2 0
-7 5 9 0
6 -9 -10 0
-10 7 8 0
-9 -5 2 0
6 -1 8 0
-6 -8 -7 0
-8 6 -2 0
9 3 -7 0
8 4 -3 0
-7 4 5 0
-4 -6 2 0
-10 -2 -4 0
7 4 5 0
-2 -5 7 0
-8 1 10 0
9 5 8 0
7 3 4 0
8 7 1 0
-9 2 10 0
7 5 1 0
-10 -1 -5 0
-8 4 -6 0
1 -4 8 0
10 8 -5 0
-7 -10 5 0
-10 -6 4 0
9 -7 1 0
-10 -4 2 0
5 2 -1 0
2 1 7 0
-10 -3 -2 0
-7 -9 1 0
-6 4 -10 0
-10 -4 7 0
6 -10 7 0
-8 -9 2 0
-2 1 4 0
7 -1 -3 0
-5 6 -10 0
-2 -4 6 0
-6 -2 4 0
-6 3 -4 0
9 -8 -10 0
6 -9 1 0
